&bands
       outdir = './out'
       prefix = 'graphene'
       filband = 'graphene'
/
