&projwfc
       prefix='graphene'
       outdir='./out'
       ngauss=0
       degauss=0.01
       Emin=-10.0, Emax=10.0, DeltaE=0.1
       filproj='graphene.pbe.proj'
       filpdos='graphene.pbe.pdos'
/
