&CONTROL
   calculation      = 'scf'
   restart_mode     = 'from_scratch'
   outdir           = './out'
   prefix           = 'WO3'
   etot_conv_thr    = 0.0001
   forc_conv_thr    = 0.001
   pseudo_dir       = '/home/caique.campos/work/SSSP-EFF/'
/
&SYSTEM
   ibrav            = 0
   nat              = 16
   nbnd             = 85
   ecutwfc          = 60
   ecutrho          = 580
   nspin            = 2
   occupations      = 'smearing'
   smearing         = 'gaussian'
   degauss          = 1.e-3
   starting_magnetization(1) = 0.0
   starting_magnetization(2) = 0.0
   ntyp             = 2
/
&ELECTRONS
   conv_thr         = 1e-07
   mixing_beta      = 0.3
/

ATOMIC_SPECIES
W  183.84 W_pbe_v1.2.uspp.F.UPF
O  15.999 O.pbe-n-kjpaw_psl.0.1.UPF

HUBBARD (ortho-atomic)
   U W-5d 7.0
   U O-2p 8.0

K_POINTS automatic
4 4 4 0 0 0

CELL_PARAMETERS angstrom
7.49760103230000 0.00000000000000 0.00000000000000
0.00000000000000 7.66543674470000 0.00000000000000
0.00000000000000 0.00000000000000 3.89934659000000

ATOMIC_POSITIONS angstrom
W  1.8743796997 7.5134764521 3.7136276372
W  1.8743796997 3.6807434618 0.1857332478
W  5.6231940714 3.9847225266 3.7136276372
W  5.6231940714 0.1519894596 0.1857332478
O  5.6231940714 5.7554416571 3.8774194684
O  5.6231940714 7.5765065789 1.9537366793
O  3.7487871104 0.0000000000 0.0000000000
O  5.6231940714 1.9227088967 0.0219412918
O  1.8743796997 3.9216631561 1.9537366793
O  0.0000000000 0.0000000000 0.0000000000
O  1.8743796997 1.9100238713 0.0219412918
O  1.8743796997 0.0889594094 1.9456239717
O  1.8743796997 5.7427568617 3.8774194684
O  3.7487871104 3.8327329903 0.0000000000
O  5.6231940714 3.7438028245 1.9456239717
O  0.0000000000 3.8327329903 0.0000000000

