&bands
       outdir        = '../SCF/out'
       prefix        = 'graphene'
       filband       = 'graphene'
/
