&CONTROL
    calculation='relax'
    prefix='graphene'
    nstep=500
    tprnfor=.true.
    outdir='./out'
    disk_io='default'
    pseudo_dir='../../pseudos/'
    tstress=.true.
    forc_conv_thr=1.0d-4
    etot_conv_thr=1.0d-5
/
&SYSTEM
    ibrav = 4,
    a = 2.4674,
    c= 20.000,
    nat = 2,
    ntyp = 1,
    ecutwfc = 50.0 ,
    ecutrho = 400.0,
/
&ELECTRONS
    conv_thr = 1.0d-10 ,
/
&IONS
    ion_dynamics='bfgs'
/
&CELL
    cell_dynamics='bfgs'
/
ATOMIC_SPECIES
    C    12.011 C.pbe-n-kjpaw_psl.1.0.0.UPF

K_POINTS automatic
12 12 1 0 0 0

ATOMIC_POSITIONS (crystal)
 C             0.0000000000        0.0000000000        0.2500000000
 C             0.3333333330        0.6666666670        0.2500000000
