&CONTROL
  calculation   = 'nscf'
  title         = 'graphene'
  prefix        = 'graphene'
  verbosity     = 'high'
  restart_mode  = 'from_scratch'
  nstep         = 1000
  iprint        = 1
  tprnfor       = .true.
  outdir        = './out'
  wf_collect    = .true.
  disk_io       = 'default'
  pseudo_dir    = '../pseudos'
  tstress       = .true.
/
&SYSTEM
  ibrav         = 12,
  a             = 2.4674,
  b             = 2.4674,
  c             = 20.000,
  cosab         = -0.500000,
  nat           = 2,
  ntyp          = 1,
  ecutwfc       = 40.0 ,
  ecutrho       = 400.0 ,
  nbnd          = 16,
  input_DFT     = 'PBE' ,
  occupations   = 'tetrahedra' ,
/
&ELECTRONS
  electron_maxstep = 100,
  conv_thr         = 1.0d-10 ,
  mixing_mode      = 'plain' ,
  mixing_beta      = 0.3d0 ,
/
ATOMIC_SPECIES
  C    12.011 C.pbe-n-kjpaw_psl.1.0.0.UPF
ATOMIC_POSITIONS angstrom
C   0.000000000   0.000000000   5.000000000
C   0.000000000   1.424500000   5.000000000
K_POINTS automatic
96 96 1 0 0 0

