&CONTROL
  calculation     = 'bands'
  title           = 'graphene'
  prefix          = 'graphene'
  verbosity       = 'high'
  restart_mode    = 'from_scratch'
  nstep           = 1000
  iprint          = 1
  tprnfor         = .true.
  outdir          = './out'
  wf_collect      = .true.
  disk_io         = 'default'
  pseudo_dir      = '../pseudos'
  tstress         = .true.
/
&SYSTEM
  ibrav           = 0,
  celldm(1)       = 4.64872627,
  nat             = 2,
  ntyp            = 1,
  ecutwfc         = 40.0 ,
  ecutrho         = 400.0 ,
  nbnd            = 16 ,
  input_DFT       = 'PBE' ,
  occupations     = 'smearing' ,
  degauss         = 0.001 ,
  smearing         = 'marzari-vanderbilt' ,
/
&ELECTRONS
  electron_maxstep  = 100,
  conv_thr          = 1.0d-10 ,
  mixing_mode       = 'plain' ,
  mixing_beta       = 0.3d0 ,
/
ATOMIC_SPECIES
  C    12.011 C.pbe-n-kjpaw_psl.1.0.0.UPF

K_POINTS crystal_b
4
-0.333333333    0.666666667     0.000000000   50    ! K
0.0000000000    0.000000000     0.000000000   50    ! G
0.000000000     0.500000000     0.000000000   50    ! M
-0.333333333    0.666666667     0.000000000   50    ! K

CELL_PARAMETERS alat
   1.002303819  -0.000000000   0.000000000
  -0.501151909   0.868020569   0.000000000
   0.000000000   0.000000000   8.130081301

ATOMIC_POSITIONS (crystal)
C             0.0000000000        0.0000000000        0.2500000000
C             0.3333333330        0.6666666670        0.2500000000
